(set-logic BV) (define-fun origCir ((n261 Bool) (n132 Bool) (n152 Bool) (n176 Bool) (i_23 Bool)) Bool (and n261 (not (xor (and (not (xor n176 n152)) n132) (and (xor n176 n152) i_23))))) (synth-fun skel ((n261 Bool) (n132 Bool) (n152 Bool) (n176 Bool) (i_23 Bool)) Bool) (declare-var n261 Bool) (declare-var n132 Bool) (declare-var n152 Bool) (declare-var n176 Bool) (declare-var i_23 Bool) (constraint (= (origCir n261 n132 n152 n176 i_23) (skel n261 n132 n152 n176 i_23))) (check-synth)
